147487.0
2581
0 1 2 3 4 5 6 7 9 11 15 17 19 20 21 23 24 25 26 28 29 32 33 36 37 39 40 42 43 44 46 48 50 52 54 55 56 60 64 65 71 76 78 79 80 81 82 84 90 91 93 94 97 98 99 102 103 104 105 107 110 111 112 113 114 120 122 124 126 127 128 131 132 133 134 136 138 140 142 145 146 147 148 150 151 153 155 156 157 159 161 164 166 168 169 170 173 177 178 180 185 186 187 190 191 192 193 195 